Route #1: 77 23 44 26 11 64 40 53
Route #2: 10 68 18 25 42 16 66 60 6
Route #3: 41 14 36 9 19 4 59 35 55 33 13
Route #4: 28 74 48 39 61 50
Route #5: 62 54 20 3 31 73 65 47
Route #6: 49 30 70 29 5 63
Route #7: 37 75 57 7 32 76 51 8
Route #8: 22 71 15 12 34 46 45
Route #9: 2 27 56 67 69 43 21 24
Route #10: 1 52 38 58 72 17
Cost 1268